c vehicle routing problem with time windows
c solomon C204_25
c
c problem vertices edges capacity
p vrptw 27 650 700
c
c vertex a b demand x y
v 0 0 33900 0 40 50
v 1 0 32720 10 52 75
v 2 0 32790 30 45 70
v 3 0 32700 10 62 69
v 4 12610 14210 10 60 66
v 5 0 32840 10 42 65
v 6 0 32740 20 16 42
v 7 0 32730 20 58 70
v 8 28870 30470 20 34 60
v 9 26010 27610 10 28 70
v 10 0 32830 10 35 66
v 11 26980 28580 10 35 69
v 12 0 32610 20 25 85
v 13 24050 25650 30 22 75
v 14 0 32600 10 22 85
v 15 22160 23760 40 20 80
v 16 0 32590 40 20 85
v 17 0 32660 20 18 75
v 18 0 32640 20 15 75
v 19 0 32600 10 15 80
v 20 0 32900 10 30 50
v 21 0 32880 20 30 56
v 22 0 32870 20 28 52
v 23 16430 18030 10 14 66
v 24 0 32850 10 25 50
v 25 25040 26640 40 22 66
v 26 0 33900 0 40 50
c
c source target cost time
a 0 1 277 277
a 0 2 206 206
a 0 3 290 290
a 0 4 256 256
a 0 5 151 151
a 0 6 252 252
a 0 7 269 269
a 0 8 116 116
a 0 9 233 233
a 0 10 167 167
a 0 11 196 196
a 0 12 380 380
a 0 13 308 308
a 0 14 393 393
a 0 15 360 360
a 0 16 403 403
a 0 17 333 333
a 0 18 353 353
a 0 19 390 390
a 0 20 100 100
a 0 21 116 116
a 0 22 121 121
a 0 23 305 305
a 0 24 150 150
a 0 25 240 240
a 1 2 86 986
a 1 3 116 1016
a 1 4 120 1020
a 1 5 141 1041
a 1 6 488 1388
a 1 7 78 978
a 1 8 234 1134
a 1 9 245 1145
a 1 10 192 1092
a 1 11 180 1080
a 1 12 287 1187
a 1 13 300 1200
a 1 14 316 1216
a 1 15 323 1223
a 1 16 335 1235
a 1 17 340 1240
a 1 18 370 1270
a 1 19 373 1273
a 1 20 333 1233
a 1 21 290 1190
a 1 22 332 1232
a 1 23 390 1290
a 1 24 367 1267
a 1 25 313 1213
a 1 26 277 1177
a 2 1 86 986
a 2 3 170 1070
a 2 4 155 1055
a 2 5 58 958
a 2 6 403 1303
a 2 7 130 1030
a 2 8 148 1048
a 2 9 170 1070
a 2 10 107 1007
a 2 11 100 1000
a 2 12 250 1150
a 2 13 235 1135
a 2 14 274 1174
a 2 15 269 1169
a 2 16 291 1191
a 2 17 274 1174
a 2 18 304 1204
a 2 19 316 1216
a 2 20 250 1150
a 2 21 205 1105
a 2 22 247 1147
a 2 23 312 1212
a 2 24 282 1182
a 2 25 233 1133
a 2 26 206 1106
a 3 1 116 1016
a 3 2 170 1070
a 3 4 36 936
a 3 5 203 1103
a 3 6 533 1433
a 3 7 41 941
a 3 8 294 1194
a 3 9 340 1240
a 3 10 271 1171
a 3 11 270 1170
a 3 12 403 1303
a 3 13 404 1304
a 3 14 430 1330
a 3 15 434 1334
a 3 16 449 1349
a 3 17 444 1344
a 3 18 473 1373
a 3 19 482 1382
a 3 20 372 1272
a 3 21 345 1245
a 3 22 380 1280
a 3 23 480 1380
a 3 24 415 1315
a 3 25 401 1301
a 3 26 290 1190
a 4 1 120 1020
a 4 2 155 1055
a 4 3 36 936
a 4 5 180 1080
a 4 6 501 1401
a 4 7 44 944
a 4 8 266 1166
a 4 9 322 1222
a 4 10 250 1150
a 4 11 251 1151
a 4 12 398 1298
a 4 13 390 1290
a 4 14 424 1324
a 4 15 423 1323
a 4 16 442 1342
a 4 17 429 1329
a 4 18 458 1358
a 4 19 471 1371
a 4 20 340 1240
a 4 21 316 1216
a 4 22 349 1249
a 4 23 460 1360
a 4 24 384 1284
a 4 25 380 1280
a 4 26 256 1156
a 5 1 141 1041
a 5 2 58 958
a 5 3 203 1103
a 5 4 180 1080
a 5 6 347 1247
a 5 7 167 1067
a 5 8 94 994
a 5 9 148 1048
a 5 10 70 970
a 5 11 80 980
a 5 12 262 1162
a 5 13 223 1123
a 5 14 282 1182
a 5 15 266 1166
a 5 16 297 1197
a 5 17 260 1160
a 5 18 287 1187
a 5 19 308 1208
a 5 20 192 1092
a 5 21 150 1050
a 5 22 191 1091
a 5 23 280 1180
a 5 24 226 1126
a 5 25 200 1100
a 5 26 151 1051
a 6 1 488 1388
a 6 2 403 1303
a 6 3 533 1433
a 6 4 501 1401
a 6 5 347 1247
a 6 7 504 1404
a 6 8 254 1154
a 6 9 304 1204
a 6 10 306 1206
a 6 11 330 1230
a 6 12 439 1339
a 6 13 335 1235
a 6 14 434 1334
a 6 15 382 1282
a 6 16 431 1331
a 6 17 330 1230
a 6 18 330 1230
a 6 19 380 1280
a 6 20 161 1061
a 6 21 197 1097
a 6 22 156 1056
a 6 23 240 1140
a 6 24 120 1020
a 6 25 247 1147
a 6 26 252 1152
a 7 1 78 978
a 7 2 130 1030
a 7 3 41 941
a 7 4 44 944
a 7 5 167 1067
a 7 6 504 1404
a 7 8 260 1160
a 7 9 300 1200
a 7 10 233 1133
a 7 11 230 1130
a 7 12 362 1262
a 7 13 363 1263
a 7 14 390 1290
a 7 15 392 1292
a 7 16 408 1308
a 7 17 403 1303
a 7 18 432 1332
a 7 19 441 1341
a 7 20 344 1244
a 7 21 313 1213
a 7 22 349 1249
a 7 23 441 1341
a 7 24 385 1285
a 7 25 362 1262
a 7 26 269 1169
a 8 1 234 1134
a 8 2 148 1048
a 8 3 294 1194
a 8 4 266 1166
a 8 5 94 994
a 8 6 254 1154
a 8 7 260 1160
a 8 9 116 1016
a 8 10 60 960
a 8 11 90 990
a 8 12 265 1165
a 8 13 192 1092
a 8 14 277 1177
a 8 15 244 1144
a 8 16 286 1186
a 8 17 219 1119
a 8 18 242 1142
a 8 19 275 1175
a 8 20 107 1007
a 8 21 56 956
a 8 22 100 1000
a 8 23 208 1108
a 8 24 134 1034
a 8 25 134 1034
a 8 26 116 1016
a 9 1 245 1145
a 9 2 170 1070
a 9 3 340 1240
a 9 4 322 1222
a 9 5 148 1048
a 9 6 304 1204
a 9 7 300 1200
a 9 8 116 1016
a 9 10 80 980
a 9 11 70 970
a 9 12 152 1052
a 9 13 78 978
a 9 14 161 1061
a 9 15 128 1028
a 9 16 170 1070
a 9 17 111 1011
a 9 18 139 1039
a 9 19 164 1064
a 9 20 200 1100
a 9 21 141 1041
a 9 22 180 1080
a 9 23 145 1045
a 9 24 202 1102
a 9 25 72 972
a 9 26 233 1133
a 10 1 192 1092
a 10 2 107 1007
a 10 3 271 1171
a 10 4 250 1150
a 10 5 70 970
a 10 6 306 1206
a 10 7 233 1133
a 10 8 60 960
a 10 9 80 980
a 10 11 30 930
a 10 12 214 1114
a 10 13 158 1058
a 10 14 230 1130
a 10 15 205 1105
a 10 16 242 1142
a 10 17 192 1092
a 10 18 219 1119
a 10 19 244 1144
a 10 20 167 1067
a 10 21 111 1011
a 10 22 156 1056
a 10 23 210 1110
a 10 24 188 1088
a 10 25 130 1030
a 10 26 167 1067
a 11 1 180 1080
a 11 2 100 1000
a 11 3 270 1170
a 11 4 251 1151
a 11 5 80 980
a 11 6 330 1230
a 11 7 230 1130
a 11 8 90 990
a 11 9 70 970
a 11 10 30 930
a 11 12 188 1088
a 11 13 143 1043
a 11 14 206 1106
a 11 15 186 1086
a 11 16 219 1119
a 11 17 180 1080
a 11 18 208 1108
a 11 19 228 1128
a 11 20 196 1096
a 11 21 139 1039
a 11 22 183 1083
a 11 23 212 1112
a 11 24 214 1114
a 11 25 133 1033
a 11 26 196 1096
a 12 1 287 1187
a 12 2 250 1150
a 12 3 403 1303
a 12 4 398 1298
a 12 5 262 1162
a 12 6 439 1339
a 12 7 362 1262
a 12 8 265 1165
a 12 9 152 1052
a 12 10 214 1114
a 12 11 188 1088
a 12 13 104 1004
a 12 14 30 930
a 12 15 70 970
a 12 16 50 950
a 12 17 122 1022
a 12 18 141 1041
a 12 19 111 1011
a 12 20 353 1253
a 12 21 294 1194
a 12 22 331 1231
a 12 23 219 1119
a 12 24 350 1250
a 12 25 192 1092
a 12 26 380 1280
a 13 1 300 1200
a 13 2 235 1135
a 13 3 404 1304
a 13 4 390 1290
a 13 5 223 1123
a 13 6 335 1235
a 13 7 363 1263
a 13 8 192 1092
a 13 9 78 978
a 13 10 158 1058
a 13 11 143 1043
a 13 12 104 1004
a 13 14 100 1000
a 13 15 53 953
a 13 16 101 1001
a 13 17 40 940
a 13 18 70 970
a 13 19 86 986
a 13 20 262 1162
a 13 21 206 1106
a 13 22 237 1137
a 13 23 120 1020
a 13 24 251 1151
a 13 25 90 990
a 13 26 308 1208
a 14 1 316 1216
a 14 2 274 1174
a 14 3 430 1330
a 14 4 424 1324
a 14 5 282 1182
a 14 6 434 1334
a 14 7 390 1290
a 14 8 277 1177
a 14 9 161 1061
a 14 10 230 1130
a 14 11 206 1106
a 14 12 30 930
a 14 13 100 1000
a 14 15 53 953
a 14 16 20 920
a 14 17 107 1007
a 14 18 122 1022
a 14 19 86 986
a 14 20 359 1259
a 14 21 300 1200
a 14 22 335 1235
a 14 23 206 1106
a 14 24 351 1251
a 14 25 190 1090
a 14 26 393 1293
a 15 1 323 1223
a 15 2 269 1169
a 15 3 434 1334
a 15 4 423 1323
a 15 5 266 1166
a 15 6 382 1282
a 15 7 392 1292
a 15 8 244 1144
a 15 9 128 1028
a 15 10 205 1105
a 15 11 186 1086
a 15 12 70 970
a 15 13 53 953
a 15 14 53 953
a 15 16 50 950
a 15 17 53 953
a 15 18 70 970
a 15 19 50 950
a 15 20 316 1216
a 15 21 260 1160
a 15 22 291 1191
a 15 23 152 1052
a 15 24 304 1204
a 15 25 141 1041
a 15 26 360 1260
a 16 1 335 1235
a 16 2 291 1191
a 16 3 449 1349
a 16 4 442 1342
a 16 5 297 1197
a 16 6 431 1331
a 16 7 408 1308
a 16 8 286 1186
a 16 9 170 1070
a 16 10 242 1142
a 16 11 219 1119
a 16 12 50 950
a 16 13 101 1001
a 16 14 20 920
a 16 15 50 950
a 16 17 101 1001
a 16 18 111 1011
a 16 19 70 970
a 16 20 364 1264
a 16 21 306 1206
a 16 22 339 1239
a 16 23 199 1099
a 16 24 353 1253
a 16 25 191 1091
a 16 26 403 1303
a 17 1 340 1240
a 17 2 274 1174
a 17 3 444 1344
a 17 4 429 1329
a 17 5 260 1160
a 17 6 330 1230
a 17 7 403 1303
a 17 8 219 1119
a 17 9 111 1011
a 17 10 192 1092
a 17 11 180 1080
a 17 12 122 1022
a 17 13 40 940
a 17 14 107 1007
a 17 15 53 953
a 17 16 101 1001
a 17 18 30 930
a 17 19 58 958
a 17 20 277 1177
a 17 21 224 1124
a 17 22 250 1150
a 17 23 98 998
a 17 24 259 1159
a 17 25 98 998
a 17 26 333 1233
a 18 1 370 1270
a 18 2 304 1204
a 18 3 473 1373
a 18 4 458 1358
a 18 5 287 1187
a 18 6 330 1230
a 18 7 432 1332
a 18 8 242 1142
a 18 9 139 1039
a 18 10 219 1119
a 18 11 208 1108
a 18 12 141 1041
a 18 13 70 970
a 18 14 122 1022
a 18 15 70 970
a 18 16 111 1011
a 18 17 30 930
a 18 19 50 950
a 18 20 291 1191
a 18 21 242 1142
a 18 22 264 1164
a 18 23 90 990
a 18 24 269 1169
a 18 25 114 1014
a 18 26 353 1253
a 19 1 373 1273
a 19 2 316 1216
a 19 3 482 1382
a 19 4 471 1371
a 19 5 308 1208
a 19 6 380 1280
a 19 7 441 1341
a 19 8 275 1175
a 19 9 164 1064
a 19 10 244 1144
a 19 11 228 1128
a 19 12 111 1011
a 19 13 86 986
a 19 14 86 986
a 19 15 50 950
a 19 16 70 970
a 19 17 58 958
a 19 18 50 950
a 19 20 335 1235
a 19 21 283 1183
a 19 22 308 1208
a 19 23 140 1040
a 19 24 316 1216
a 19 25 156 1056
a 19 26 390 1290
a 20 1 333 1233
a 20 2 250 1150
a 20 3 372 1272
a 20 4 340 1240
a 20 5 192 1092
a 20 6 161 1061
a 20 7 344 1244
a 20 8 107 1007
a 20 9 200 1100
a 20 10 167 1067
a 20 11 196 1096
a 20 12 353 1253
a 20 13 262 1162
a 20 14 359 1259
a 20 15 316 1216
a 20 16 364 1264
a 20 17 277 1177
a 20 18 291 1191
a 20 19 335 1235
a 20 21 60 960
a 20 22 28 928
a 20 23 226 1126
a 20 24 50 950
a 20 25 178 1078
a 20 26 100 1000
a 21 1 290 1190
a 21 2 205 1105
a 21 3 345 1245
a 21 4 316 1216
a 21 5 150 1050
a 21 6 197 1097
a 21 7 313 1213
a 21 8 56 956
a 21 9 141 1041
a 21 10 111 1011
a 21 11 139 1039
a 21 12 294 1194
a 21 13 206 1106
a 21 14 300 1200
a 21 15 260 1160
a 21 16 306 1206
a 21 17 224 1124
a 21 18 242 1142
a 21 19 283 1183
a 21 20 60 960
a 21 22 44 944
a 21 23 188 1088
a 21 24 78 978
a 21 25 128 1028
a 21 26 116 1016
a 22 1 332 1232
a 22 2 247 1147
a 22 3 380 1280
a 22 4 349 1249
a 22 5 191 1091
a 22 6 156 1056
a 22 7 349 1249
a 22 8 100 1000
a 22 9 180 1080
a 22 10 156 1056
a 22 11 183 1083
a 22 12 331 1231
a 22 13 237 1137
a 22 14 335 1235
a 22 15 291 1191
a 22 16 339 1239
a 22 17 250 1150
a 22 18 264 1164
a 22 19 308 1208
a 22 20 28 928
a 22 21 44 944
a 22 23 197 1097
a 22 24 36 936
a 22 25 152 1052
a 22 26 121 1021
a 23 1 390 1290
a 23 2 312 1212
a 23 3 480 1380
a 23 4 460 1360
a 23 5 280 1180
a 23 6 240 1140
a 23 7 441 1341
a 23 8 208 1108
a 23 9 145 1045
a 23 10 210 1110
a 23 11 212 1112
a 23 12 219 1119
a 23 13 120 1020
a 23 14 206 1106
a 23 15 152 1052
a 23 16 199 1099
a 23 17 98 998
a 23 18 90 990
a 23 19 140 1040
a 23 20 226 1126
a 23 21 188 1088
a 23 22 197 1097
a 23 24 194 1094
a 23 25 80 980
a 23 26 305 1205
a 24 1 367 1267
a 24 2 282 1182
a 24 3 415 1315
a 24 4 384 1284
a 24 5 226 1126
a 24 6 120 1020
a 24 7 385 1285
a 24 8 134 1034
a 24 9 202 1102
a 24 10 188 1088
a 24 11 214 1114
a 24 12 350 1250
a 24 13 251 1151
a 24 14 351 1251
a 24 15 304 1204
a 24 16 353 1253
a 24 17 259 1159
a 24 18 269 1169
a 24 19 316 1216
a 24 20 50 950
a 24 21 78 978
a 24 22 36 936
a 24 23 194 1094
a 24 25 162 1062
a 24 26 150 1050
a 25 1 313 1213
a 25 2 233 1133
a 25 3 401 1301
a 25 4 380 1280
a 25 5 200 1100
a 25 6 247 1147
a 25 7 362 1262
a 25 8 134 1034
a 25 9 72 972
a 25 10 130 1030
a 25 11 133 1033
a 25 12 192 1092
a 25 13 90 990
a 25 14 190 1090
a 25 15 141 1041
a 25 16 191 1091
a 25 17 98 998
a 25 18 114 1014
a 25 19 156 1056
a 25 20 178 1078
a 25 21 128 1028
a 25 22 152 1052
a 25 23 80 980
a 25 24 162 1062
a 25 26 240 1140
